c Maximum weighted clique instances generated from exactcolors.
c cutoff: 11671106.
c A clique of value > scalef (11671106) defines an improving stable sets for coloring.
p edge 31 0
n 1 11671106
n 2 11671106
n 3 11671106
n 4 11671106
n 5 11671106
n 6 11671106
n 7 11671106
n 8 11671106
n 9 11671106
n 10 11671106
n 11 11671106
n 12 11671106
n 13 11671106
n 14 11671106
n 15 11671106
n 16 11671106
n 17 11671106
n 18 11671106
n 19 11671106
n 20 11671106
n 21 11671106
n 22 11671106
n 23 11671106
n 24 11671106
n 25 11671106
n 26 11671106
n 27 11671106
n 28 11671106
n 29 11671106
n 30 11671106
n 31 11671106
